ACTORES = {Actor0, Actor1, Actor2, Actor3, Actor4};
Escenas =[|1,0,0,0,1,0,0,0,1,0,0,0,0,0,0,1,1,1,0,1,12
		  |0,0,1,0,0,0,0,0,1,1,1,1,1,0,0,0,0,0,1,0,4
		  |1,1,0,0,1,1,0,1,1,0,1,0,1,1,0,1,0,0,1,0,9
		  |0,0,1,1,1,0,1,1,0,0,0,0,0,1,1,0,0,0,1,0,2
		  |0,1,0,0,0,0,0,0,1,0,0,1,0,1,0,1,0,0,0,0,14
		  |];
Duracion=[2, 1, 5, 5, 1, 5, 4, 2, 4, 4, 2, 4, 5, 2, 3, 4, 4, 4, 3, 5];